auto-dp/workflow/scripts/PACE2017-TrackA/2x2.gr
p tw 4 8
2 4
1 2
2 1
3 4
4 3
3 1
4 2
1 3
